50 8
212 869
553 356
838 520
788 321
510 431
127 577
392 575
460 439
376 425
455 118
652 421
497 141
336 892
783 394
469 814
754 590
880 681
799 647
264 541
530 432
486 196
407 527
821 396
464 437
146 931
630 562
157 584
765 576
147 860
213 483
27 459
194 539
594 516
437 918
222 525
517 539
257 464
515 173
121 408
87 560
208 637
156 562
262 804
504 721
575 267
549 269
213 627
561 584
619 484
673 297
